834.18 0
0 88 62 10 32 90 63 11 64 49 36 47 19 7 52 0
0 31 70 30 20 66 65 71 35 9 51 1 69 27 0
0 18 83 8 82 48 46 45 17 84 5 60 89 0
0 50 33 81 34 78 79 3 29 24 80 68 77 76 28 0
0 26 4 56 23 67 39 25 55 54 12 0
0 6 99 61 16 86 38 44 14 43 42 87 13 0
0 94 95 97 92 37 98 100 91 85 93 59 96 0
0 53 40 21 73 72 74 75 22 41 15 57 2 58 0
